





































































































29 52 1 12 19 14 
70 50 31 5 67 18 
36 58 74 3 75 71 59 
43 6 42 24 33 72 66 
13 64 34 27 15 7 
76 46 11 37 21 26 
41 65 60 51 63 25 
17 30 45 20 48 55 
56 44 57 62 10 4 
28 49 73 9 
32 8 53 16 23 40 
69 54 47 61 38 68 
35 22 39 2 0 
